192
0 9 120 118 113 114 40 158 48 27 
64 49 132 182 106 93 95 32 97 185 
168 163 45 18 136 154 148 26 99 84 
6 169 91 98 180 102 77 17 66 96 
39 37 152 189 186 126 86 72 85 30 
155 124 171 70 19 14 69 58 184 146 
162 166 54 65 51 150 50 71 176 79 
156 175 38 141 80 109 61 13 122 34 
161 173 23 29 44 53 105 1 107 82 
42 8 76 78 143 123 187 74 179 140 
127 144 129 11 21 63 149 160 128 137 
20 60 164 35 191 75 88 121 138 47 
68 2 59 157 116 167 178 5 131 119 
130 103 43 90 142 24 111 165 134 92 
57 83 3 153 145 55 87 115 28 89 
36 188 147 135 112 170 56 46 159 10 
110 181 104 15 183 151 67 100 25 94 
16 172 190 125 31 52 41 177 81 4 
73 7 174 139 101 33 12 62 22 117 
108 133 
